5
13
24
5
12
14
1,2
4,2
2,2
2,2
1,4
0,4
4,0
2,2
4,1
5,6
2,1
2,3
5,5
7,7
3,4
5,5
10,1
300,2
2,10
7,4
6,5
1,4
1,2
9,2
7,2
5,6
3,2
2,3
2,6
5,3
8,6
2,1
6,7
3,4
6,2
7,1
100,100
5,2
5,3
5,5
3,4
5,1
8,3
4,6
55,3
2,3
9,9
6,5
6,9